(set-logic SLIA)
(define-fun func0  ((A String) (B String) (C String) (D String) (E String) ) String (str.replace (str.replace C  D  E ) A  B ))
(define-fun func1  ((A String) (B String) (C String) (D String) ) String (str.replace A  B  (str.++ C  D )))
(define-fun func2  ((A String) (B String) (C String) ) String (str.++ A  (str.++ B  C )))
(define-fun func3  ((A String) (B String) (C String) (D String) ) String (str.++ A  (str.++ B  (str.++ C  D ))))
(define-fun func4  ((A String) (B Int) (C String) (D Int) ) String (str.substr A  (+ 1  (str.indexof A  C  D )) B ))
(define-fun func5  ((A String) (B Int) (C String) ) String (str.substr A  (+ 1  (str.indexof A  C  0 )) B ))
(define-fun func6  ((A String) (B Int) (C String) (D String) (E Int) ) String (str.substr A  (+ 1  (str.indexof C  D  E )) B ))
(define-fun func7  ((A String) (B Int) (C String) (D String) ) String (str.substr A  (+ 1  (str.indexof C  D  0 )) B ))
(define-fun func8  ((A String) (B Int) (C Int) ) String (str.substr A  (+ 1  C ) B ))
(define-fun func9  ((A String) (B Int) (C Int) (D String) (E Int) ) String (str.substr A  (+ C  (str.indexof A  D  E )) B ))
(define-fun func10  ((A String) (B Int) (C Int) (D String) ) String (str.substr A  (+ C  (str.indexof A  D  0 )) B ))
(define-fun func11  ((A String) (B Int) (C Int) (D String) (E String) (F Int) ) String (str.substr A  (+ C  (str.indexof D  E  F )) B ))
(define-fun func12  ((A String) (B Int) (C Int) (D String) (E String) ) String (str.substr A  (+ C  (str.indexof D  E  0 )) B ))
(define-fun func13  ((A String) (B Int) (C Int) (D Int) ) String (str.substr A  (+ C  D ) B ))
(define-fun func14  ((A String) (B Int) (C Int) ) String (str.substr A  (+ B  C ) 3 ))
(define-fun func15  ((A String) (B Int) (C Int) ) String (str.substr A  (+ B  C ) (str.len A )))
(define-fun func16  ((A String) (B Int) (C Int) (D Int) ) String (str.substr A  (- C  D ) B ))
(define-fun func17  ((A String) (B Int) ) String (str.substr A  0  B ))
(define-fun func18  ((A String) (B String) (C Int) ) String (str.substr A  0  (str.indexof A  B  C )))
(define-fun func19  ((A String) (B String) ) String (str.substr A  0  (str.indexof A  B  0 )))
(define-fun func20  ((A String) (B String) (C String) (D Int) ) String (str.substr A  0  (str.indexof B  C  D )))
(define-fun func21  ((A String) (B String) (C String) ) String (str.substr A  0  (str.indexof B  C  1 )))
(define-fun func22  ((A String) (B String) (C String) ) String (str.substr A  0  (str.indexof B  C  0 )))
(define-fun func23  ((A String) (B Int) (C Int) (D Int) ) String (str.substr A  B  (+ C  D )))
(define-fun func24  ((A String) (B Int) (C String) (D Int) ) String (str.substr A  B  (str.indexof A  C  D )))
(define-fun func25  ((A String) (B Int) (C String) ) String (str.substr A  B  (str.indexof A  C  1 )))
(define-fun func26  ((A String) (B Int) (C String) ) String (str.substr A  B  (str.indexof A  C  0 )))
(define-fun func27  ((A String) (B Int) (C String) (D String) (E Int) ) String (str.substr A  B  (str.indexof C  D  E )))
(define-fun func28  ((A String) (B Int) (C String) (D String) ) String (str.substr A  B  (str.indexof C  D  1 )))
(define-fun func29  ((A String) (B Int) (C String) (D String) ) String (str.substr A  B  (str.indexof C  D  0 )))
(define-fun func30  ((A String) (B Int) (C Int) (D Int) ) String (str.substr A  B  (- C  D )))
(define-fun func31  ((A String) (B Int) ) String (str.substr A  B  3 ))
(define-fun func32  ((A String) (B Int) ) String (str.substr A  B  (str.len A )))
(define-fun func33  ((A String) (B Int) (C Int) (D String) (E String) ) String (str.substr A  (+ C  (str.indexof D  E  1 )) B ))
(define-fun func34  ((A String) (B Int) (C Int) (D String) ) String (str.substr A  (+ B  C ) (str.len D )))
(define-fun func35  ((A String) (B Int) (C String) ) String (str.substr A  B  (str.len C )))
(define-fun func36  ((A Int) ) Int (+ -1  A ))
(define-fun func37  ((A Int) ) Int (+ 1  A ))
(define-fun func38  ((A String) (B String) (C Int) ) Int (+ 1  (str.indexof A  B  C )))
(define-fun func39  ((A String) (B String) ) Int (+ 1  (str.indexof A  B  0 )))
(define-fun func40  ((A Int) (B Int) (C Int) ) Int (+ A  (+ B  C )))
(define-fun func41  ((A Int) ) Int (+ A  -1 ))
(define-fun func42  ((A Int) (B String) (C String) (D Int) ) Int (+ A  (str.indexof B  C  D )))
(define-fun func43  ((A Int) (B String) (C String) ) Int (+ A  (str.indexof B  C  1 )))
(define-fun func44  ((A Int) (B String) (C String) ) Int (+ A  (str.indexof B  C  0 )))
(define-fun func45  ((A String) (B String) ) Int (str.indexof A  B  1 ))
(define-fun func46  ((A String) (B String) ) Int (str.indexof A  B  0 ))
(define-fun func47  ((A Int) (B String) ) Int (- (str.len B ) A ))
(define-fun func48  ((A String) ) Int (- (str.len A ) 3 ))
(define-fun func49  ((A Int) ) Int (- A  3 ))
(define-fun func50  ((A String) (B String) ) Bool (str.contains A  B ))
(synth-fun f ((name String)) String
( (Start String (ntString))
 (ntString String (
	name " " 
	(func0 ntString ntString ntString ntString ntString)
	(func1 ntString ntString ntString ntString)
	(func2 ntString ntString ntString)
	(func4 ntString ntInt ntString ntInt)
	(func5 ntString ntInt ntString)
	(func12 ntString ntInt ntInt ntString ntString)
	(func14 ntString ntInt ntInt)
	(func18 ntString ntString ntInt)
	(func19 ntString ntString)
	(func24 ntString ntInt ntString ntInt)
	(func26 ntString ntInt ntString)
	(func27 ntString ntInt ntString ntString ntInt)
	(func31 ntString ntInt)
	(func34 ntString ntInt ntInt ntString)
	(func35 ntString ntInt ntString)
	(str.++ ntString ntString)
	(str.replace ntString ntString ntString)
))
 (ntInt Int (
	0 1 2 3 4 5 
	(func39 ntString ntString)
	(func40 ntInt ntInt ntInt)
	(func42 ntInt ntString ntString ntInt)
	(func43 ntInt ntString ntString)
	(func44 ntInt ntString ntString)
	(func47 ntInt ntString)
	(func48 ntString)
	(str.to.int ntString)
	(ite ntBool ntInt ntInt)
))
 (ntBool Bool (
	true false
	(= ntInt ntInt)
	(str.suffixof ntString ntString)
	(str.contains ntString ntString)
))
))
(constraint (= (f "938-242-504") "938"))
(constraint (= (f "308-916-545") "308"))
(constraint (= (f "623-599-749") "623"))
(constraint (= (f "981-424-843") "981"))
(constraint (= (f "118-980-214") "118"))
(constraint (= (f "244-655-094") "244"))
(constraint (= (f "830-941-991") "830"))
(constraint (= (f "911-186-562") "911"))
(constraint (= (f "002-500-200") "002"))
(constraint (= (f "113-860-034") "113"))
(constraint (= (f "457-622-959") "457"))
(constraint (= (f "986-722-311") "986"))
(constraint (= (f "110-170-771") "110"))
(constraint (= (f "469-610-118") "469"))
(constraint (= (f "817-925-247") "817"))
(constraint (= (f "256-899-439") "256"))
(constraint (= (f "886-911-726") "886"))
(constraint (= (f "562-950-358") "562"))
(constraint (= (f "693-049-588") "693"))
(constraint (= (f "840-503-234") "840"))
(constraint (= (f "698-815-340") "698"))
(constraint (= (f "498-808-434") "498"))
(constraint (= (f "329-545-000") "329"))
(constraint (= (f "380-281-597") "380"))
(constraint (= (f "332-395-493") "332"))
(constraint (= (f "251-903-028") "251"))
(constraint (= (f "176-090-894") "176"))
(constraint (= (f "336-611-100") "336"))
(constraint (= (f "416-390-647") "416"))
(constraint (= (f "019-430-596") "019"))
(constraint (= (f "960-659-771") "960"))
(constraint (= (f "475-505-007") "475"))
(constraint (= (f "424-069-886") "424"))
(constraint (= (f "941-102-117") "941"))
(constraint (= (f "331-728-008") "331"))
(constraint (= (f "487-726-198") "487"))
(constraint (= (f "612-419-942") "612"))
(constraint (= (f "594-741-346") "594"))
(constraint (= (f "320-984-742") "320"))
(constraint (= (f "060-919-361") "060"))
(constraint (= (f "275-536-998") "275"))
(constraint (= (f "548-835-065") "548"))
(constraint (= (f "197-485-507") "197"))
(constraint (= (f "455-776-949") "455"))
(constraint (= (f "085-421-340") "085"))
(constraint (= (f "785-713-099") "785"))
(constraint (= (f "426-712-861") "426"))
(constraint (= (f "386-994-906") "386"))
(constraint (= (f "918-304-840") "918"))
(constraint (= (f "247-153-598") "247"))
(constraint (= (f "075-497-069") "075"))
(constraint (= (f "140-726-583") "140"))
(constraint (= (f "049-413-248") "049"))
(constraint (= (f "977-386-462") "977"))
(constraint (= (f "058-272-455") "058"))
(constraint (= (f "428-629-927") "428"))
(constraint (= (f "449-122-191") "449"))
(constraint (= (f "568-759-670") "568"))
(constraint (= (f "312-846-053") "312"))
(constraint (= (f "943-037-297") "943"))
(constraint (= (f "014-270-177") "014"))
(constraint (= (f "658-877-878") "658"))
(constraint (= (f "888-594-038") "888"))
(constraint (= (f "232-253-254") "232"))
(constraint (= (f "308-722-292") "308"))
(constraint (= (f "342-145-742") "342"))
(constraint (= (f "568-181-515") "568"))
(constraint (= (f "300-140-756") "300"))
(constraint (= (f "099-684-216") "099"))
(constraint (= (f "575-296-621") "575"))
(constraint (= (f "994-443-794") "994"))
(constraint (= (f "400-334-692") "400"))
(constraint (= (f "684-711-883") "684"))
(constraint (= (f "539-636-358") "539"))
(constraint (= (f "009-878-919") "009"))
(constraint (= (f "919-545-701") "919"))
(constraint (= (f "546-399-239") "546"))
(constraint (= (f "993-608-757") "993"))
(constraint (= (f "107-652-845") "107"))
(constraint (= (f "206-805-793") "206"))
(constraint (= (f "198-857-684") "198"))
(constraint (= (f "912-827-430") "912"))
(constraint (= (f "560-951-766") "560"))
(constraint (= (f "142-178-290") "142"))
(constraint (= (f "732-196-946") "732"))
(constraint (= (f "963-875-745") "963"))
(constraint (= (f "881-865-867") "881"))
(constraint (= (f "234-686-715") "234"))
(constraint (= (f "720-330-583") "720"))
(constraint (= (f "593-065-126") "593"))
(constraint (= (f "671-778-064") "671"))
(constraint (= (f "252-029-036") "252"))
(constraint (= (f "700-322-036") "700"))
(constraint (= (f "882-587-473") "882"))
(constraint (= (f "964-134-953") "964"))
(constraint (= (f "038-300-876") "038"))
(constraint (= (f "158-894-947") "158"))
(constraint (= (f "757-454-374") "757"))
(constraint (= (f "872-513-190") "872"))
(constraint (= (f "566-086-726") "566"))
(check-synth)
